results/res_prop_muc/res_Cimatti_mathsat_cores/QF_UF/NEQ015_size3.smt.smt2.out

real	0m0.309s
user	0m0.240s
sys	0m0.030s
