results/res_prop_muc/res_Cimatti_mathsat_cores/QF_UF/NEQ015_size3.smt.smt2.res
unsat
( _c0
  _c128
  _c131
  _c134
  _c1465
  _c1466
  _c1467
  _c1469
  _c1588
  _c1592
  _c1593
  _c1596
  _c1597
  _c1882
  _c1883
  _c1885
  _c1886
  _c1927
  _c1928
  _c1929
  _c1931
  _c2026
  _c2027
  _c38
  _c39
  _c394
  _c395
  _c410
  _c413
  _c455
  _c459
  _c460
  _c563
  _c564
  _c845
  _c847
  _c848
  _c863
  _c864 )
